161 3 38 70 110 200 64 28 198 
101 197 43 7 81 29 87 149 
148 30 88 186 185 4 162 39 107 
119 18 36 90 6 145 92 15 111 
120 182 163 61 184 199 98 95 108 
113 57 66 13 24 172 121 165 183 
78 170 112 58 126 37 53 63 142 56 
144 159 55 143 46 106 157 188 158 
27 85 12 164 71 125 167 34 123 
147 86 65 32 154 100 14 96 17 109 
131 166 93 22 35 151 16 140 59 
178 171 116 129 77 25 51 174 136 189 
135 175 155 128 91 122 67 99 137 
83 193 60 82 146 194 181 117 49 
133 114 21 152 40 76 9 42 74 
48 20 173 41 124 141 169 130 179 
103 134 50 80 115 94 187 
104 192 160 47 2 89 105 
45 62 44 177 8 132 33 1 
118 180 191 84 127 79 195 52 
10 54 75 68 72 138 
5 73 11 176 168 139 
19 150 23 156 153 97 
26 102 196 31 69 
190 

